MAGMOM = 1.5 2.5981 0  -3 0 0  -3 0 0  1.5 2.5981 0  1.5 -2.5981 0  1.5 -2.5981 0  0 0 0  0 0 0
